data;

param num_top:=5;

#nodes and edges of the physical network
param n := 10;

set E := (1,2) (1,3) (1,7) (2,4) (2,7) (3,5) (4,8) (5,6) (5,7) (6,7) (6,9) (7,8) (7,9) (8,10) (9,10) ;

#nodes and edges of the virtual networks
set Nl[1] := 7 10 4 5 ;
set Nl[2] := 1 7 8 9 ;
set Nl[3] := 7 9 5 6 2 ;
set Nl[4] := 6 3 1 9 2 ;
set Nl[5] := 9 3 4 2 ;

set El[1] := (7,10) (4,10) (4,5) (5,7) ;
set El[2] := (1,7) (7,8) (8,9) (1,9) (7,9) (1,8) ;
set El[3] := (7,9) (5,9) (5,6) (2,6) (2,7) ;
set El[4] := (3,6) (1,3) (1,9) (2,9) (2,6) (1,2) (2,3) (6,9) (3,9) (1,6) ;
set El[5] := (3,9) (3,4) (2,4) (2,9) (4,9) (2,3) ;
